(set-logic QF_LIA)
(set-info :ran/ran5.smt2)
(set-info :smt-lib-version 2.0)
(declare-fun x0 () Int)
(declare-fun x1 () Int)
(declare-fun x2 () Int)
(declare-fun x3 () Int)
(declare-fun x4 () Int)
(define-fun ie0 () Bool (<= (+ (* (- 15) x0) (* (- 99) x4) (* 93 x0) (* 55 x3) ) (- 95)))
(define-fun ie1 () Bool (<= (+ (* 3 x3) (* (- 76) x2) (* (- 13) x2) (* 64 x4) ) (- 69)))
(define-fun ie2 () Bool (<= (+ (* (- 18) x0) (* 2 x2) ) 67))
(define-fun ie3 () Bool (<= (+ (* (- 80) x3) (* 44 x3) ) (- 37)))
(define-fun ie4 () Bool (<= (+ (* 63 x1) (* 40 x3) (* (- 93) x1) (* 82 x4) ) 66))
(assert ie0)
(assert ie1)
(assert ie2)
(assert ie3)
(assert ie4)
(check-sat)
(exit)
